7976
7798
8009
7828
7925
7929
7804
7841
7886
7855
7897
7931
7963
8013
7810
7886
7935
7731
8008
7882
7853
8022
7897
7884
7786
7775
7767
7914
7881
7951
7887
7912
7937
7922
7841
7943
7879
7868
7995
7803
7775
7988
7710
7831
7832
7885
7928
7895
7838
7861
8037
7913
7816
7796
7952
7883
7904
7903
7909
7797
7984
7843
7998
7833
7709
7913
7821
7934
7996
8039
7943
7836
7901
7874
7939
7944
7817
7887
7944
7797
7846
7818
7938
7870
7786
7912
7805
7900
7786
7751
7889
7772
7915
7953
7816
7655
7771
7861
7792
7895
